10 26

 0 2 74
 0 3 187
 0 5 34
 0 6 36
 1 2 119
 1 5 127
 1 8 67
 2 0 74
 2 1 119
 2 5 56
 2 7 88
 2 9 142
 3 0 187
 4 6 72
 4 7 39
 5 0 34
 5 1 127
 5 2 56
 5 8 190
 6 0 36
 6 4 72
 7 2 88
 7 4 39
 8 1 67
 8 5 190
 9 2 142

 5

 0
 2
 4
 6
 8

 5

 0
 2
 4
 6
 8

